\ENCODING=ISO-8859-1
\Problem name: ilog.cplex

Minimize
 obj1: 100140 x1 + 109985 x2 + 106077 x3 + 101161 x4 + 108056 x5 + 104256 x6
       + 90159 x7 + 104084 x8 + 101526 x9 + 93837 x10 + 109749 x11 + 94977 x12
       + 99879 x13 + 94120 x14 + 90772 x15 + 109960 x16 + 104081 x17
       + 108984 x18 + 98443 x19 + 103058 x20 + 92391 x21 + 93480 x22
       + 102378 x23 + 93432 x24 + 97667 x25 + 98186 x26 + 90455 x27 + 94102 x28
       + 98812 x29 + 103326 x30 + 101148 x31 + 100990 x32 + 105886 x33
       + 101100 x34 + 98852 x35 + 91729 x36 + 106121 x37 + 100605 x38
       + 102258 x39 + 109978 x40 + 106342 x41 + 91319 x42 + 91931 x43
       + 92848 x44 + 96253 x45 + 108340 x46 + 109968 x47 + 96610 x48
       + 106560 x49 + 95371 x50 + 102007 x51 + 108933 x52 + 106130 x53
       + 99936 x54 + 99823 x55 + 104748 x56 + 93134 x57 + 99374 x58
       + 101361 x59 + 107159 x60 + 94891 x61 + 96692 x62 + 94052 x63
       + 109175 x64 + 93368 x65 + 105236 x66 + 95913 x67 + 98281 x68
       + 97839 x69 + 100247 x70 + 93817 x71 + 98284 x72 + 103790 x73
       + 103483 x74 + 95300 x75 + 105480 x76 + 102476 x77 + 103518 x78
       + 90609 x79 + 95568 x80 + 97498 x81 + 102549 x82 + 97675 x83 + 92519 x84
       + 92132 x85 + 100795 x86 + 108219 x87 + 94824 x88 + 106540 x89
       + 98793 x90 + 103402 x91 + 101597 x92 + 108964 x93 + 94934 x94
       + 107773 x95 + 105928 x96 + 105695 x97 + 93290 x98 + 96202 x99
       + 98312 x100 + 90836 x101 + 95043 x102 + 100102 x103 + 109133 x104
       + 108820 x105 + 105780 x106 + 96411 x107 + 95902 x108 + 90114 x109
       + 90464 x110 + 105683 x111 + 108319 x112 + 103725 x113 + 108059 x114
       + 94040 x115 + 102215 x116 + 108864 x117 + 98597 x118 + 107871 x119
       + 102031 x120 + 90763 x121 + 109884 x122 + 109178 x123 + 90108 x124
       + 96122 x125 + 109549 x126 + 91551 x127 + 97600 x128 + 102175 x129
       + 108030 x130 + 92556 x131 + 92824 x132 + 106848 x133 + 93350 x134
       + 105970 x135 + 105816 x136 + 107379 x137 + 91295 x138 + 104571 x139
       + 90736 x140 + 108223 x141 + 95458 x142 + 90739 x143 + 102036 x144
       + 108842 x145 + 106080 x146 + 105607 x147 + 96231 x148 + 102474 x149
       + 92142 x150 + 104866 x151 + 107980 x152 + 101194 x153 + 106126 x154
       + 96384 x155 + 99556 x156 + 97422 x157 + 91539 x158 + 102493 x159
       + 98706 x160 + 97574 x161 + 109548 x162 + 98085 x163 + 101504 x164
       + 99610 x165 + 92978 x166 + 104579 x167 + 104001 x168 + 93007 x169
       + 93432 x170 + 109387 x171 + 99307 x172 + 97026 x173 + 100461 x174
       + 90668 x175 + 95200 x176 + 101160 x177 + 100443 x178 + 97973 x179
       + 91436 x180 + 105641 x181 + 105792 x182 + 96897 x183 + 109111 x184
       + 92009 x185 + 95662 x186 + 93598 x187 + 102633 x188 + 97958 x189
       + 93235 x190 + 106759 x191 + 98867 x192 + 90520 x193 + 90183 x194
       + 104296 x195 + 103911 x196 + 96410 x197 + 97220 x198 + 91007 x199
       + 104537 x200 + 97573 x201 + 90281 x202 + 98472 x203 + 95259 x204
       + 107459 x205 + 92401 x206 + 106821 x207 + 109883 x208 + 102349 x209
       + 105168 x210 + 108111 x211 + 93477 x212 + 96791 x213 + 97876 x214
       + 106059 x215 + 107730 x216 + 92487 x217 + 107369 x218 + 107531 x219
       + 100360 x220 + 95990 x221 + 97055 x222 + 97452 x223 + 107528 x224
       + 92094 x225 + 109682 x226 + 100687 x227 + 97134 x228 + 97056 x229
       + 105192 x230 + 101994 x231 + 100435 x232 + 98583 x233 + 102365 x234
       + 98252 x235 + 99586 x236 + 97994 x237 + 100914 x238 + 95967 x239
       + 99516 x240 + 93973 x241 + 107647 x242 + 103072 x243 + 101057 x244
       + 97623 x245 + 91879 x246 + 107276 x247 + 94569 x248 + 98770 x249
       + 102997 x250 + 99247 x251 + 106008 x252 + 90543 x253 + 104283 x254
       + 96342 x255 + 93127 x256 + 102360 x257 + 97139 x258 + 97228 x259
       + 109288 x260 + 97988 x261 + 101500 x262 + 96501 x263 + 99636 x264
       + 91724 x265 + 101108 x266 + 95808 x267 + 97189 x268 + 100008 x269
       + 98323 x270 + 108134 x271 + 103915 x272 + 92213 x273 + 107790 x274
       + 96211 x275 + 96841 x276 + 91399 x277 + 108679 x278 + 100850 x279
       + 109913 x280 + 103495 x281 + 91103 x282 + 100478 x283 + 108582 x284
       + 101693 x285 + 93966 x286 + 99291 x287 + 95986 x288 + 101729 x289
       + 98654 x290 + 108157 x291 + 107129 x292 + 93304 x293 + 95835 x294
       + 99776 x295 + 100584 x296 + 103071 x297 + 101083 x298 + 107600 x299
       + 73349 x300 + 20164 x301 + 19708 x302 + 20176 x303 + 19730 x304
       + 20182 x305 + 19003 x306 + 19124 x307 + 19270 x308 + 19210 x309
       + 19293 x310 + 18472 x311 + 20757 x312 + 20498 x313 + 20888 x314
       + 21146 x315 + 20776 x316 + 18666 x317 + 18629 x318 + 21025 x319
       + 18782 x320 + 21428 x321 + 20347 x322 + 21432 x323 + 19200 x324
       + 19922 x325 + 20923 x326 + 21501 x327 + 19073 x328 + 19113 x329
       + 19493 x330 + 19240 x331 + 19290 x332 + 19773 x333 + 18916 x334
       + 19373 x335 + 18652 x336 + 19013 x337 + 18497 x338 + 18646 x339
       + 21638 x340 + 19144 x341 + 19260 x342 + 19302 x343 + 20671 x344
       + 20839 x345 + 21731 x346 + 20821 x347 + 18090 x348 + 18124 x349
       + 21211 x350 + 20743 x351 + 19697 x352 + 21699 x353 + 18937 x354
       + 21553 x355 + 20886 x356 + 21354 x357 + 21324 x358 + 20086 x359
       + 23559 x360
Subject To
 c1:   x12 - x21 - x23 - x36 + x57 - x60  = 0
 c2:   x72 - x81 - x83 - x96 + x117 - x120  = 0
 c3:   x132 - x141 - x143 - x156 + x177 - x180  = 0
 c4:   x192 - x201 - x203 - x216 + x237 - x240  = -1
 c5:   x252 - x261 - x263 - x276 + x297 - x300  = 0
 c6:   - x9 - x13 + x14 + x18 - x30 + x33 - x39 + x51 + x54  = 0
 c7:   - x69 - x73 + x74 + x78 - x90 + x93 - x99 + x111 + x114  = 0
 c8:   - x129 - x133 + x134 + x138 - x150 + x153 - x159 + x171 + x174  = 0
 c9:   - x189 - x193 + x194 + x198 - x210 + x213 - x219 + x231 + x234  = 0
 c10:  - x249 - x253 + x254 + x258 - x270 + x273 - x279 + x291 + x294  = 0
 c11:  - x1 - x8 - x10 - x25 - x42  = 0
 c12:  - x61 - x68 - x70 - x85 - x102  = 0
 c13:  - x121 - x128 - x130 - x145 - x162  = 0
 c14:  - x181 - x188 - x190 - x205 - x222  = 0
 c15:  - x241 - x248 - x250 - x265 - x282  = 0
 c16:  x8 - x19 + x21 + x28 + x38 + x44 + x45 - x49 + x53 - x55  = 0
 c17:  x68 - x79 + x81 + x88 + x98 + x104 + x105 - x109 + x113 - x115  = -1
 c18:  x128 - x139 + x141 + x148 + x158 + x164 + x165 - x169 + x173 - x175  = 0
 c19:  x188 - x199 + x201 + x208 + x218 + x224 + x225 - x229 + x233 - x235  = 0
 c20:  x248 - x259 + x261 + x268 + x278 + x284 + x285 - x289 + x293 - x295  = 0
 c21:  - x16 - x22 + x25 + x29 - x31 + x46 - x50 - x52 - x58  = 0
 c22:  - x76 - x82 + x85 + x89 - x91 + x106 - x110 - x112 - x118  = 0
 c23:  - x136 - x142 + x145 + x149 - x151 + x166 - x170 - x172 - x178  = 0
 c24:  - x196 - x202 + x205 + x209 - x211 + x226 - x230 - x232 - x238  = 0
 c25:  - x256 - x262 + x265 + x269 - x271 + x286 - x290 - x292 - x298  = 0
 c26:  - x2 + x9 + x26 + x41 + x50 + x59  = 0
 c27:  - x62 + x69 + x86 + x101 + x110 + x119  = 0
 c28:  - x122 + x129 + x146 + x161 + x170 + x179  = 1
 c29:  - x182 + x189 + x206 + x221 + x230 + x239  = 0
 c30:  - x242 + x249 + x266 + x281 + x290 + x299  = 0
 c31:  x4 - x5 - x12 - x17 - x29 + x32 + x43 - x56  = -1
 c32:  x64 - x65 - x72 - x77 - x89 + x92 + x103 - x116  = 0
 c33:  x124 - x125 - x132 - x137 - x149 + x152 + x163 - x176  = 0
 c34:  x184 - x185 - x192 - x197 - x209 + x212 + x223 - x236  = 0
 c35:  x244 - x245 - x252 - x257 - x269 + x272 + x283 - x296  = 0
 c36:  - x11 + x13 - x24 - x40 - x43 + x56 + x58 + x60  = 0
 c37:  - x71 + x73 - x84 - x100 - x103 + x116 + x118 + x120  = 0
 c38:  - x131 + x133 - x144 - x160 - x163 + x176 + x178 + x180  = 0
 c39:  - x191 + x193 - x204 - x220 - x223 + x236 + x238 + x240  = 0
 c40:  - x251 + x253 - x264 - x280 - x283 + x296 + x298 + x300  = 0
 c41:  x1 + x3 - x4 + x7 - x20 - x27 + x31 - x33 + x35 + x36 - x37 - x44 + x48
        = 0
 c42:  x61 + x63 - x64 + x67 - x80 - x87 + x91 - x93 + x95 + x96 - x97 - x104
       + x108  = 0
 c43:  x121 + x123 - x124 + x127 - x140 - x147 + x151 - x153 + x155 + x156
       - x157 - x164 + x168  = 0
 c44:  x181 + x183 - x184 + x187 - x200 - x207 + x211 - x213 + x215 + x216
       - x217 - x224 + x228  = 0
 c45:  x241 + x243 - x244 + x247 - x260 - x267 + x271 - x273 + x275 + x276
       - x277 - x284 + x288  = -1
 c46:  x2 - x18 + x22 + x30 + x34 - x35 + x55  = 0
 c47:  x62 - x78 + x82 + x90 + x94 - x95 + x115  = 0
 c48:  x122 - x138 + x142 + x150 + x154 - x155 + x175  = 0
 c49:  x182 - x198 + x202 + x210 + x214 - x215 + x235  = 0
 c50:  x242 - x258 + x262 + x270 + x274 - x275 + x295  = 0
 c51:  - x6 - x7 + x10 + x15 + x17 + x23 - x28 - x32 + x39 - x47 - x51 + x52
       - x59  = 0
 c52:  - x66 - x67 + x70 + x75 + x77 + x83 - x88 - x92 + x99 - x107 - x111
       + x112 - x119  = 0
 c53:  - x126 - x127 + x130 + x135 + x137 + x143 - x148 - x152 + x159 - x167
       - x171 + x172 - x179  = 0
 c54:  - x186 - x187 + x190 + x195 + x197 + x203 - x208 - x212 + x219 - x227
       - x231 + x232 - x239  = 0
 c55:  - x246 - x247 + x250 + x255 + x257 + x263 - x268 - x272 + x279 - x287
       - x291 + x292 - x299  = 0
 c56:  - x15 + x24 - x34 - x46 - x48 - x53 - x57  = 0
 c57:  - x75 + x84 - x94 - x106 - x108 - x113 - x117  = 1
 c58:  - x135 + x144 - x154 - x166 - x168 - x173 - x177  = 0
 c59:  - x195 + x204 - x214 - x226 - x228 - x233 - x237  = 0
 c60:  - x255 + x264 - x274 - x286 - x288 - x293 - x297  = 0
 c61:  - x3 + x5 + x19 + x37 + x40 - x54  = 0
 c62:  - x63 + x65 + x79 + x97 + x100 - x114  = 0
 c63:  - x123 + x125 + x139 + x157 + x160 - x174  = 0
 c64:  - x183 + x185 + x199 + x217 + x220 - x234  = 1
 c65:  - x243 + x245 + x259 + x277 + x280 - x294  = 0
 c66:  x11 - x14 + x16 + x27 - x38 - x41 + x47  = 0
 c67:  x71 - x74 + x76 + x87 - x98 - x101 + x107  = 0
 c68:  x131 - x134 + x136 + x147 - x158 - x161 + x167  = 0
 c69:  x191 - x194 + x196 + x207 - x218 - x221 + x227  = 0
 c70:  x251 - x254 + x256 + x267 - x278 - x281 + x287  = 0
 c71:  x6 + x20 - x26 + x42 - x45 + x49  = 1
 c72:  x66 + x80 - x86 + x102 - x105 + x109  = 0
 c73:  x126 + x140 - x146 + x162 - x165 + x169  = -1
 c74:  x186 + x200 - x206 + x222 - x225 + x229  = 0
 c75:  x246 + x260 - x266 + x282 - x285 + x289  = 1
 c76:  4 x1 + 4 x61 + 4 x121 + 4 x181 + 4 x241 - 9 x301 <= 0
 c77:  4 x2 + 4 x62 + 4 x122 + 4 x182 + 4 x242 - 10 x302 <= 0
 c78:  4 x3 + 4 x63 + 4 x123 + 4 x183 + 4 x243 - 10 x303 <= 0
 c79:  4 x4 + 4 x64 + 4 x124 + 4 x184 + 4 x244 - 10 x304 <= 0
 c80:  4 x5 + 4 x65 + 4 x125 + 4 x185 + 4 x245 - 11 x305 <= 0
 c81:  4 x6 + 4 x66 + 4 x126 + 4 x186 + 4 x246 - 10 x306 <= 0
 c82:  4 x7 + 4 x67 + 4 x127 + 4 x187 + 4 x247 - 11 x307 <= 0
 c83:  4 x8 + 4 x68 + 4 x128 + 4 x188 + 4 x248 - 11 x308 <= 0
 c84:  4 x9 + 4 x69 + 4 x129 + 4 x189 + 4 x249 - 9 x309 <= 0
 c85:  4 x10 + 4 x70 + 4 x130 + 4 x190 + 4 x250 - 11 x310 <= 0
 c86:  4 x11 + 4 x71 + 4 x131 + 4 x191 + 4 x251 - 10 x311 <= 0
 c87:  4 x12 + 4 x72 + 4 x132 + 4 x192 + 4 x252 - 10 x312 <= 0
 c88:  4 x13 + 4 x73 + 4 x133 + 4 x193 + 4 x253 - 10 x313 <= 0
 c89:  4 x14 + 4 x74 + 4 x134 + 4 x194 + 4 x254 - 11 x314 <= 0
 c90:  4 x15 + 4 x75 + 4 x135 + 4 x195 + 4 x255 - 9 x315 <= 0
 c91:  4 x16 + 4 x76 + 4 x136 + 4 x196 + 4 x256 - 9 x316 <= 0
 c92:  4 x17 + 4 x77 + 4 x137 + 4 x197 + 4 x257 - 10 x317 <= 0
 c93:  4 x18 + 4 x78 + 4 x138 + 4 x198 + 4 x258 - 10 x318 <= 0
 c94:  4 x19 + 4 x79 + 4 x139 + 4 x199 + 4 x259 - 10 x319 <= 0
 c95:  4 x20 + 4 x80 + 4 x140 + 4 x200 + 4 x260 - 10 x320 <= 0
 c96:  4 x21 + 4 x81 + 4 x141 + 4 x201 + 4 x261 - 10 x321 <= 0
 c97:  4 x22 + 4 x82 + 4 x142 + 4 x202 + 4 x262 - 10 x322 <= 0
 c98:  4 x23 + 4 x83 + 4 x143 + 4 x203 + 4 x263 - 10 x323 <= 0
 c99:  4 x24 + 4 x84 + 4 x144 + 4 x204 + 4 x264 - 10 x324 <= 0
 c100: 4 x25 + 4 x85 + 4 x145 + 4 x205 + 4 x265 - 9 x325 <= 0
 c101: 4 x26 + 4 x86 + 4 x146 + 4 x206 + 4 x266 - 10 x326 <= 0
 c102: 4 x27 + 4 x87 + 4 x147 + 4 x207 + 4 x267 - 10 x327 <= 0
 c103: 4 x28 + 4 x88 + 4 x148 + 4 x208 + 4 x268 - 10 x328 <= 0
 c104: 4 x29 + 4 x89 + 4 x149 + 4 x209 + 4 x269 - 9 x329 <= 0
 c105: 4 x30 + 4 x90 + 4 x150 + 4 x210 + 4 x270 - 10 x330 <= 0
 c106: 4 x31 + 4 x91 + 4 x151 + 4 x211 + 4 x271 - 9 x331 <= 0
 c107: 4 x32 + 4 x92 + 4 x152 + 4 x212 + 4 x272 - 9 x332 <= 0
 c108: 4 x33 + 4 x93 + 4 x153 + 4 x213 + 4 x273 - 9 x333 <= 0
 c109: 4 x34 + 4 x94 + 4 x154 + 4 x214 + 4 x274 - 9 x334 <= 0
 c110: 4 x35 + 4 x95 + 4 x155 + 4 x215 + 4 x275 - 9 x335 <= 0
 c111: 4 x36 + 4 x96 + 4 x156 + 4 x216 + 4 x276 - 11 x336 <= 0
 c112: 4 x37 + 4 x97 + 4 x157 + 4 x217 + 4 x277 - 9 x337 <= 0
 c113: 4 x38 + 4 x98 + 4 x158 + 4 x218 + 4 x278 - 10 x338 <= 0
 c114: 4 x39 + 4 x99 + 4 x159 + 4 x219 + 4 x279 - 11 x339 <= 0
 c115: 4 x40 + 4 x100 + 4 x160 + 4 x220 + 4 x280 - 11 x340 <= 0
 c116: 4 x41 + 4 x101 + 4 x161 + 4 x221 + 4 x281 - 10 x341 <= 0
 c117: 4 x42 + 4 x102 + 4 x162 + 4 x222 + 4 x282 - 10 x342 <= 0
 c118: 4 x43 + 4 x103 + 4 x163 + 4 x223 + 4 x283 - 10 x343 <= 0
 c119: 4 x44 + 4 x104 + 4 x164 + 4 x224 + 4 x284 - 11 x344 <= 0
 c120: 4 x45 + 4 x105 + 4 x165 + 4 x225 + 4 x285 - 10 x345 <= 0
 c121: 4 x46 + 4 x106 + 4 x166 + 4 x226 + 4 x286 - 10 x346 <= 0
 c122: 4 x47 + 4 x107 + 4 x167 + 4 x227 + 4 x287 - 10 x347 <= 0
 c123: 4 x48 + 4 x108 + 4 x168 + 4 x228 + 4 x288 - 10 x348 <= 0
 c124: 4 x49 + 4 x109 + 4 x169 + 4 x229 + 4 x289 - 11 x349 <= 0
 c125: 4 x50 + 4 x110 + 4 x170 + 4 x230 + 4 x290 - 9 x350 <= 0
 c126: 4 x51 + 4 x111 + 4 x171 + 4 x231 + 4 x291 - 9 x351 <= 0
 c127: 4 x52 + 4 x112 + 4 x172 + 4 x232 + 4 x292 - 9 x352 <= 0
 c128: 4 x53 + 4 x113 + 4 x173 + 4 x233 + 4 x293 - 9 x353 <= 0
 c129: 4 x54 + 4 x114 + 4 x174 + 4 x234 + 4 x294 - 10 x354 <= 0
 c130: 4 x55 + 4 x115 + 4 x175 + 4 x235 + 4 x295 - 10 x355 <= 0
 c131: 4 x56 + 4 x116 + 4 x176 + 4 x236 + 4 x296 - 10 x356 <= 0
 c132: 4 x57 + 4 x117 + 4 x177 + 4 x237 + 4 x297 - 9 x357 <= 0
 c133: 4 x58 + 4 x118 + 4 x178 + 4 x238 + 4 x298 - 10 x358 <= 0
 c134: 4 x59 + 4 x119 + 4 x179 + 4 x239 + 4 x299 - 10 x359 <= 0
 c135: 4 x60 + 4 x120 + 4 x180 + 4 x240 + 4 x300 - 17 x360 <= 0
Bounds
 0 <= x1 <= 1
 0 <= x2 <= 1
 0 <= x3 <= 1
 0 <= x4 <= 1
 0 <= x5 <= 1
 0 <= x6 <= 1
 0 <= x7 <= 1
 0 <= x8 <= 1
 0 <= x9 <= 1
 0 <= x10 <= 1
 0 <= x11 <= 1
 0 <= x12 <= 1
 0 <= x13 <= 1
 0 <= x14 <= 1
 0 <= x15 <= 1
 0 <= x16 <= 1
 0 <= x17 <= 1
 0 <= x18 <= 1
 0 <= x19 <= 1
 0 <= x20 <= 1
 0 <= x21 <= 1
 0 <= x22 <= 1
 0 <= x23 <= 1
 0 <= x24 <= 1
 0 <= x25 <= 1
 0 <= x26 <= 1
 0 <= x27 <= 1
 0 <= x28 <= 1
 0 <= x29 <= 1
 0 <= x30 <= 1
 0 <= x31 <= 1
 0 <= x32 <= 1
 0 <= x33 <= 1
 0 <= x34 <= 1
 0 <= x35 <= 1
 0 <= x36 <= 1
 0 <= x37 <= 1
 0 <= x38 <= 1
 0 <= x39 <= 1
 0 <= x40 <= 1
 0 <= x41 <= 1
 0 <= x42 <= 1
 0 <= x43 <= 1
 0 <= x44 <= 1
 0 <= x45 <= 1
 0 <= x46 <= 1
 0 <= x47 <= 1
 0 <= x48 <= 1
 0 <= x49 <= 1
 0 <= x50 <= 1
 0 <= x51 <= 1
 0 <= x52 <= 1
 0 <= x53 <= 1
 0 <= x54 <= 1
 0 <= x55 <= 1
 0 <= x56 <= 1
 0 <= x57 <= 1
 0 <= x58 <= 1
 0 <= x59 <= 1
 0 <= x60 <= 1
 0 <= x61 <= 1
 0 <= x62 <= 1
 0 <= x63 <= 1
 0 <= x64 <= 1
 0 <= x65 <= 1
 0 <= x66 <= 1
 0 <= x67 <= 1
 0 <= x68 <= 1
 0 <= x69 <= 1
 0 <= x70 <= 1
 0 <= x71 <= 1
 0 <= x72 <= 1
 0 <= x73 <= 1
 0 <= x74 <= 1
 0 <= x75 <= 1
 0 <= x76 <= 1
 0 <= x77 <= 1
 0 <= x78 <= 1
 0 <= x79 <= 1
 0 <= x80 <= 1
 0 <= x81 <= 1
 0 <= x82 <= 1
 0 <= x83 <= 1
 0 <= x84 <= 1
 0 <= x85 <= 1
 0 <= x86 <= 1
 0 <= x87 <= 1
 0 <= x88 <= 1
 0 <= x89 <= 1
 0 <= x90 <= 1
 0 <= x91 <= 1
 0 <= x92 <= 1
 0 <= x93 <= 1
 0 <= x94 <= 1
 0 <= x95 <= 1
 0 <= x96 <= 1
 0 <= x97 <= 1
 0 <= x98 <= 1
 0 <= x99 <= 1
 0 <= x100 <= 1
 0 <= x101 <= 1
 0 <= x102 <= 1
 0 <= x103 <= 1
 0 <= x104 <= 1
 0 <= x105 <= 1
 0 <= x106 <= 1
 0 <= x107 <= 1
 0 <= x108 <= 1
 0 <= x109 <= 1
 0 <= x110 <= 1
 0 <= x111 <= 1
 0 <= x112 <= 1
 0 <= x113 <= 1
 0 <= x114 <= 1
 0 <= x115 <= 1
 0 <= x116 <= 1
 0 <= x117 <= 1
 0 <= x118 <= 1
 0 <= x119 <= 1
 0 <= x120 <= 1
 0 <= x121 <= 1
 0 <= x122 <= 1
 0 <= x123 <= 1
 0 <= x124 <= 1
 0 <= x125 <= 1
 0 <= x126 <= 1
 0 <= x127 <= 1
 0 <= x128 <= 1
 0 <= x129 <= 1
 0 <= x130 <= 1
 0 <= x131 <= 1
 0 <= x132 <= 1
 0 <= x133 <= 1
 0 <= x134 <= 1
 0 <= x135 <= 1
 0 <= x136 <= 1
 0 <= x137 <= 1
 0 <= x138 <= 1
 0 <= x139 <= 1
 0 <= x140 <= 1
 0 <= x141 <= 1
 0 <= x142 <= 1
 0 <= x143 <= 1
 0 <= x144 <= 1
 0 <= x145 <= 1
 0 <= x146 <= 1
 0 <= x147 <= 1
 0 <= x148 <= 1
 0 <= x149 <= 1
 0 <= x150 <= 1
 0 <= x151 <= 1
 0 <= x152 <= 1
 0 <= x153 <= 1
 0 <= x154 <= 1
 0 <= x155 <= 1
 0 <= x156 <= 1
 0 <= x157 <= 1
 0 <= x158 <= 1
 0 <= x159 <= 1
 0 <= x160 <= 1
 0 <= x161 <= 1
 0 <= x162 <= 1
 0 <= x163 <= 1
 0 <= x164 <= 1
 0 <= x165 <= 1
 0 <= x166 <= 1
 0 <= x167 <= 1
 0 <= x168 <= 1
 0 <= x169 <= 1
 0 <= x170 <= 1
 0 <= x171 <= 1
 0 <= x172 <= 1
 0 <= x173 <= 1
 0 <= x174 <= 1
 0 <= x175 <= 1
 0 <= x176 <= 1
 0 <= x177 <= 1
 0 <= x178 <= 1
 0 <= x179 <= 1
 0 <= x180 <= 1
 0 <= x181 <= 1
 0 <= x182 <= 1
 0 <= x183 <= 1
 0 <= x184 <= 1
 0 <= x185 <= 1
 0 <= x186 <= 1
 0 <= x187 <= 1
 0 <= x188 <= 1
 0 <= x189 <= 1
 0 <= x190 <= 1
 0 <= x191 <= 1
 0 <= x192 <= 1
 0 <= x193 <= 1
 0 <= x194 <= 1
 0 <= x195 <= 1
 0 <= x196 <= 1
 0 <= x197 <= 1
 0 <= x198 <= 1
 0 <= x199 <= 1
 0 <= x200 <= 1
 0 <= x201 <= 1
 0 <= x202 <= 1
 0 <= x203 <= 1
 0 <= x204 <= 1
 0 <= x205 <= 1
 0 <= x206 <= 1
 0 <= x207 <= 1
 0 <= x208 <= 1
 0 <= x209 <= 1
 0 <= x210 <= 1
 0 <= x211 <= 1
 0 <= x212 <= 1
 0 <= x213 <= 1
 0 <= x214 <= 1
 0 <= x215 <= 1
 0 <= x216 <= 1
 0 <= x217 <= 1
 0 <= x218 <= 1
 0 <= x219 <= 1
 0 <= x220 <= 1
 0 <= x221 <= 1
 0 <= x222 <= 1
 0 <= x223 <= 1
 0 <= x224 <= 1
 0 <= x225 <= 1
 0 <= x226 <= 1
 0 <= x227 <= 1
 0 <= x228 <= 1
 0 <= x229 <= 1
 0 <= x230 <= 1
 0 <= x231 <= 1
 0 <= x232 <= 1
 0 <= x233 <= 1
 0 <= x234 <= 1
 0 <= x235 <= 1
 0 <= x236 <= 1
 0 <= x237 <= 1
 0 <= x238 <= 1
 0 <= x239 <= 1
 0 <= x240 <= 1
 0 <= x241 <= 1
 0 <= x242 <= 1
 0 <= x243 <= 1
 0 <= x244 <= 1
 0 <= x245 <= 1
 0 <= x246 <= 1
 0 <= x247 <= 1
 0 <= x248 <= 1
 0 <= x249 <= 1
 0 <= x250 <= 1
 0 <= x251 <= 1
 0 <= x252 <= 1
 0 <= x253 <= 1
 0 <= x254 <= 1
 0 <= x255 <= 1
 0 <= x256 <= 1
 0 <= x257 <= 1
 0 <= x258 <= 1
 0 <= x259 <= 1
 0 <= x260 <= 1
 0 <= x261 <= 1
 0 <= x262 <= 1
 0 <= x263 <= 1
 0 <= x264 <= 1
 0 <= x265 <= 1
 0 <= x266 <= 1
 0 <= x267 <= 1
 0 <= x268 <= 1
 0 <= x269 <= 1
 0 <= x270 <= 1
 0 <= x271 <= 1
 0 <= x272 <= 1
 0 <= x273 <= 1
 0 <= x274 <= 1
 0 <= x275 <= 1
 0 <= x276 <= 1
 0 <= x277 <= 1
 0 <= x278 <= 1
 0 <= x279 <= 1
 0 <= x280 <= 1
 0 <= x281 <= 1
 0 <= x282 <= 1
 0 <= x283 <= 1
 0 <= x284 <= 1
 0 <= x285 <= 1
 0 <= x286 <= 1
 0 <= x287 <= 1
 0 <= x288 <= 1
 0 <= x289 <= 1
 0 <= x290 <= 1
 0 <= x291 <= 1
 0 <= x292 <= 1
 0 <= x293 <= 1
 0 <= x294 <= 1
 0 <= x295 <= 1
 0 <= x296 <= 1
 0 <= x297 <= 1
 0 <= x298 <= 1
 0 <= x299 <= 1
 0 <= x300 <= 1
 0 <= x301 <= 1
 0 <= x302 <= 1
 0 <= x303 <= 1
 0 <= x304 <= 1
 0 <= x305 <= 1
 0 <= x306 <= 1
 0 <= x307 <= 1
 0 <= x308 <= 1
 0 <= x309 <= 1
 0 <= x310 <= 1
 0 <= x311 <= 1
 0 <= x312 <= 1
 0 <= x313 <= 1
 0 <= x314 <= 1
 0 <= x315 <= 1
 0 <= x316 <= 1
 0 <= x317 <= 1
 0 <= x318 <= 1
 0 <= x319 <= 1
 0 <= x320 <= 1
 0 <= x321 <= 1
 0 <= x322 <= 1
 0 <= x323 <= 1
 0 <= x324 <= 1
 0 <= x325 <= 1
 0 <= x326 <= 1
 0 <= x327 <= 1
 0 <= x328 <= 1
 0 <= x329 <= 1
 0 <= x330 <= 1
 0 <= x331 <= 1
 0 <= x332 <= 1
 0 <= x333 <= 1
 0 <= x334 <= 1
 0 <= x335 <= 1
 0 <= x336 <= 1
 0 <= x337 <= 1
 0 <= x338 <= 1
 0 <= x339 <= 1
 0 <= x340 <= 1
 0 <= x341 <= 1
 0 <= x342 <= 1
 0 <= x343 <= 1
 0 <= x344 <= 1
 0 <= x345 <= 1
 0 <= x346 <= 1
 0 <= x347 <= 1
 0 <= x348 <= 1
 0 <= x349 <= 1
 0 <= x350 <= 1
 0 <= x351 <= 1
 0 <= x352 <= 1
 0 <= x353 <= 1
 0 <= x354 <= 1
 0 <= x355 <= 1
 0 <= x356 <= 1
 0 <= x357 <= 1
 0 <= x358 <= 1
 0 <= x359 <= 1
 0 <= x360 <= 1
Binaries
 x301  x302  x303  x304  x305  x306  x307  x308  x309  x310  x311  x312  x313 
 x314  x315  x316  x317  x318  x319  x320  x321  x322  x323  x324  x325  x326 
 x327  x328  x329  x330  x331  x332  x333  x334  x335  x336  x337  x338  x339 
 x340  x341  x342  x343  x344  x345  x346  x347  x348  x349  x350  x351  x352 
 x353  x354  x355  x356  x357  x358  x359  x360 
End
